c CNF file corresponding to a (partial) station packing problem.
p cnf 4693 229
1 2 3 4 5 6 7 8 9 10 11 12 13 14 0
-1 -2 0
-1 -3 0
-1 -4 0
-1 -5 0
-1 -6 0
-1 -7 0
-1 -8 0
-1 -9 0
-1 -10 0
-1 -11 0
-1 -12 0
-1 -13 0
-1 -14 0
-2 -3 0
-2 -4 0
-2 -5 0
-2 -6 0
-2 -7 0
-2 -8 0
-2 -9 0
-2 -10 0
-2 -11 0
-2 -12 0
-2 -13 0
-2 -14 0
-3 -4 0
-3 -5 0
-3 -6 0
-3 -7 0
-3 -8 0
-3 -9 0
-3 -10 0
-3 -11 0
-3 -12 0
-3 -13 0
-3 -14 0
-4 -5 0
-4 -6 0
-4 -7 0
-4 -8 0
-4 -9 0
-4 -10 0
-4 -11 0
-4 -12 0
-4 -13 0
-4 -14 0
-5 -6 0
-5 -7 0
-5 -8 0
-5 -9 0
-5 -10 0
-5 -11 0
-5 -12 0
-5 -13 0
-5 -14 0
-6 -7 0
-6 -8 0
-6 -9 0
-6 -10 0
-6 -11 0
-6 -12 0
-6 -13 0
-6 -14 0
-7 -8 0
-7 -9 0
-7 -10 0
-7 -11 0
-7 -12 0
-7 -13 0
-7 -14 0
-8 -9 0
-8 -10 0
-8 -11 0
-8 -12 0
-8 -13 0
-8 -14 0
-9 -10 0
-9 -11 0
-9 -12 0
-9 -13 0
-9 -14 0
-10 -11 0
-10 -12 0
-10 -13 0
-10 -14 0
-11 -12 0
-11 -13 0
-11 -14 0
-12 -13 0
-12 -14 0
-13 -14 0
4677 4678 4679 4680 4681 4682 4683 4684 4685 4686 4687 4688 4689 4690 4691 4692 4693 0
-4677 -4678 0
-4677 -4679 0
-4677 -4680 0
-4677 -4681 0
-4677 -4682 0
-4677 -4683 0
-4677 -4684 0
-4677 -4685 0
-4677 -4686 0
-4677 -4687 0
-4677 -4688 0
-4677 -4689 0
-4677 -4690 0
-4677 -4691 0
-4677 -4692 0
-4677 -4693 0
-4678 -4679 0
-4678 -4680 0
-4678 -4681 0
-4678 -4682 0
-4678 -4683 0
-4678 -4684 0
-4678 -4685 0
-4678 -4686 0
-4678 -4687 0
-4678 -4688 0
-4678 -4689 0
-4678 -4690 0
-4678 -4691 0
-4678 -4692 0
-4678 -4693 0
-4679 -4680 0
-4679 -4681 0
-4679 -4682 0
-4679 -4683 0
-4679 -4684 0
-4679 -4685 0
-4679 -4686 0
-4679 -4687 0
-4679 -4688 0
-4679 -4689 0
-4679 -4690 0
-4679 -4691 0
-4679 -4692 0
-4679 -4693 0
-4680 -4681 0
-4680 -4682 0
-4680 -4683 0
-4680 -4684 0
-4680 -4685 0
-4680 -4686 0
-4680 -4687 0
-4680 -4688 0
-4680 -4689 0
-4680 -4690 0
-4680 -4691 0
-4680 -4692 0
-4680 -4693 0
-4681 -4682 0
-4681 -4683 0
-4681 -4684 0
-4681 -4685 0
-4681 -4686 0
-4681 -4687 0
-4681 -4688 0
-4681 -4689 0
-4681 -4690 0
-4681 -4691 0
-4681 -4692 0
-4681 -4693 0
-4682 -4683 0
-4682 -4684 0
-4682 -4685 0
-4682 -4686 0
-4682 -4687 0
-4682 -4688 0
-4682 -4689 0
-4682 -4690 0
-4682 -4691 0
-4682 -4692 0
-4682 -4693 0
-4683 -4684 0
-4683 -4685 0
-4683 -4686 0
-4683 -4687 0
-4683 -4688 0
-4683 -4689 0
-4683 -4690 0
-4683 -4691 0
-4683 -4692 0
-4683 -4693 0
-4684 -4685 0
-4684 -4686 0
-4684 -4687 0
-4684 -4688 0
-4684 -4689 0
-4684 -4690 0
-4684 -4691 0
-4684 -4692 0
-4684 -4693 0
-4685 -4686 0
-4685 -4687 0
-4685 -4688 0
-4685 -4689 0
-4685 -4690 0
-4685 -4691 0
-4685 -4692 0
-4685 -4693 0
-4686 -4687 0
-4686 -4688 0
-4686 -4689 0
-4686 -4690 0
-4686 -4691 0
-4686 -4692 0
-4686 -4693 0
-4687 -4688 0
-4687 -4689 0
-4687 -4690 0
-4687 -4691 0
-4687 -4692 0
-4687 -4693 0
-4688 -4689 0
-4688 -4690 0
-4688 -4691 0
-4688 -4692 0
-4688 -4693 0
-4689 -4690 0
-4689 -4691 0
-4689 -4692 0
-4689 -4693 0
-4690 -4691 0
-4690 -4692 0
-4690 -4693 0
-4691 -4692 0
-4691 -4693 0
-4692 -4693 0
